20
1 0 64
2 0 78
2 1 19
3 0 48
3 1 80
3 2 95
4 0 5
4 1 61
4 2 41
4 3 60
5 0 67
5 1 8
5 2 50
5 3 77
5 4 63
6 0 75
6 1 19
6 2 92
6 3 68
6 4 62
6 5 57
7 0 99
7 1 36
7 2 57
7 3 38
7 4 65
7 5 14
7 6 45
8 0 26
8 1 21
8 2 56
8 3 56
8 4 63
8 5 16
8 6 90
8 7 22
9 0 44
9 1 37
9 2 47
9 3 2
9 4 51
9 5 34
9 6 61
9 7 75
9 8 4
10 0 24
10 1 81
10 2 33
10 3 54
10 4 30
10 5 68
10 6 15
10 7 29
10 8 2
10 9 65
11 0 63
11 1 11
11 2 32
11 3 63
11 4 87
11 5 100
11 6 28
11 7 99
11 8 78
11 9 85
11 10 51
12 0 58
12 1 5
12 2 54
12 3 92
12 4 70
12 5 76
12 6 82
12 7 67
12 8 22
12 9 66
12 10 97
12 11 55
13 0 19
13 1 20
13 2 14
13 3 86
13 4 77
13 5 3
13 6 77
13 7 86
13 8 27
13 9 48
13 10 52
13 11 13
13 12 50
14 0 18
14 1 73
14 2 44
14 3 93
14 4 96
14 5 15
14 6 5
14 7 25
14 8 52
14 9 54
14 10 52
14 11 28
14 12 71
14 13 51
15 0 36
15 1 47
15 2 28
15 3 43
15 4 23
15 5 27
15 6 40
15 7 56
15 8 39
15 9 27
15 10 43
15 11 52
15 12 74
15 13 74
15 14 71
16 0 85
16 1 61
16 2 4
16 3 29
16 4 31
16 5 96
16 6 15
16 7 87
16 8 1
16 9 99
16 10 2
16 11 53
16 12 78
16 13 8
16 14 69
16 15 76
17 0 11
17 1 51
17 2 41
17 3 5
17 4 68
17 5 65
17 6 4
17 7 7
17 8 42
17 9 32
17 10 55
17 11 7
17 12 41
17 13 59
17 14 49
17 15 11
17 16 16
18 0 25
18 1 55
18 2 20
18 3 12
18 4 67
18 5 79
18 6 61
18 7 46
18 8 88
18 9 98
18 10 70
18 11 36
18 12 91
18 13 28
18 14 19
18 15 42
18 16 90
18 17 8
19 0 69
19 1 97
19 2 46
19 3 78
19 4 85
19 5 37
19 6 18
19 7 93
19 8 59
19 9 52
19 10 47
19 11 76
19 12 6
19 13 20
19 14 100
19 15 27
19 16 49
19 17 1
19 18 38
